# Solution for model Model5
# Objective value = 1712
y[0,0,0] 0
y[0,0,1] 1
y[0,1,0] 1
y[0,1,1] 0
y[1,0,1] 1
y[1,1,1] 1
y[2,0,0] 1
y[2,0,1] 0
y[2,1,0] 1
y[2,1,1] 0
x[0,0,0,0] 0
x[0,0,0,1] 0
x[0,0,1,0] 0
x[0,0,1,1] 0
x[0,0,2,0] 0
x[0,0,2,1] 0
x[0,1,0,0] 0
x[0,1,0,1] 0
x[0,1,1,0] 0
x[0,1,1,1] 0
x[0,1,2,0] 0
x[0,1,2,1] 0
x[1,0,0,0] 0
x[1,0,0,1] 0
x[1,0,1,0] 0
x[1,0,1,1] 1
x[1,0,2,0] 0
x[1,0,2,1] 0
x[1,1,0,0] 0
x[1,1,0,1] 0
x[1,1,1,0] 0
x[1,1,1,1] 0
x[1,1,2,0] 0
x[1,1,2,1] 0
x[2,0,0,0] 0
x[2,0,0,1] 0
x[2,0,1,0] 0
x[2,0,1,1] 0
x[2,0,2,0] 0
x[2,0,2,1] 1
x[2,1,0,0] 0
x[2,1,0,1] 0
x[2,1,1,0] 0
x[2,1,1,1] 0
x[2,1,2,0] 0
x[2,1,2,1] 0
s[0,0,0] 0
s[0,0,1] 5.3400000000001148e+02
s[0,1,0] 480
s[0,1,1] 0
s[1,0,1] 1.2590000000000214e+03
s[1,1,1] 8.0900000000002137e+02
s[2,0,0] 969
s[2,0,1] 0
s[2,1,0] 599
s[2,1,1] 0
Z_FO 1712
C57 0
C58 1
C59 1
C60 1
C61 0
